(set-info :status sat)
(declare-const symbol_216 (_ BitVec 32))
(declare-const symbol_140 (_ BitVec 32))
(declare-const symbol_381 (_ BitVec 32))
(declare-const symbol_422 (_ BitVec 32))
(declare-const symbol_420 (_ BitVec 32))
(declare-const symbol_393 (_ BitVec 32))
(declare-const symbol_312 (_ BitVec 32))
(declare-const symbol_483 (_ BitVec 32))
(declare-const symbol_240 (_ BitVec 32))
(declare-const symbol_475 (_ BitVec 32))
(declare-const symbol_222 (_ BitVec 32))
(declare-const symbol_35 (_ BitVec 32))
(declare-const symbol_226 (_ BitVec 32))
(declare-const symbol_78 (_ BitVec 32))
(declare-const symbol_298 (_ BitVec 32))
(declare-const symbol_338 (_ BitVec 32))
(declare-const symbol_156 (_ BitVec 32))
(declare-const symbol_110 (_ BitVec 32))
(declare-const symbol_401 (_ BitVec 32))
(declare-const symbol_198 (_ BitVec 32))
(declare-const symbol_58 (_ BitVec 32))
(declare-const symbol_17 (_ BitVec 32))
(declare-const symbol_296 (_ BitVec 32))
(declare-const symbol_152 (_ BitVec 32))
(declare-const symbol_447 (_ BitVec 32))
(declare-const symbol_224 (_ BitVec 32))
(declare-const symbol_54 (_ BitVec 32))
(declare-const symbol_471 (_ BitVec 32))
(declare-const symbol_272 (_ BitVec 32))
(declare-const symbol_250 (_ BitVec 32))
(declare-const symbol_106 (_ BitVec 32))
(declare-const symbol_413 (_ BitVec 32))
(declare-const symbol_130 (_ BitVec 32))
(declare-const symbol_254 (_ BitVec 32))
(declare-const symbol_433 (_ BitVec 32))
(declare-const symbol_128 (_ BitVec 32))
(declare-const symbol_84 (_ BitVec 32))
(declare-const symbol_26 (_ BitVec 32))
(declare-const symbol_327 (_ BitVec 32))
(declare-const symbol_284 (_ BitVec 32))
(declare-const symbol_352 (_ BitVec 32))
(declare-const symbol_158 (_ BitVec 32))
(declare-const symbol_29 (_ BitVec 32))
(declare-const symbol_15 (_ BitVec 32))
(declare-const symbol_323 (_ BitVec 32))
(declare-const symbol_104 (_ BitVec 32))
(declare-const symbol_348 (_ BitVec 32))
(declare-const symbol_166 (_ BitVec 32))
(declare-const symbol_485 (_ BitVec 32))
(declare-const symbol_405 (_ BitVec 32))
(declare-const symbol_181 (_ BitVec 32))
(declare-const symbol_47 (_ BitVec 32))
(declare-const symbol_377 (_ BitVec 32))
(declare-const symbol_407 (_ BitVec 32))
(declare-const symbol_52 (_ BitVec 32))
(declare-const symbol_375 (_ BitVec 32))
(declare-const symbol_365 (_ BitVec 32))
(declare-const symbol_11 (_ BitVec 32))
(declare-const symbol_465 (_ BitVec 32))
(declare-const symbol_288 (_ BitVec 32))
(declare-const symbol_95 (_ BitVec 32))
(declare-const symbol_428 (_ BitVec 32))
(declare-const symbol_221 (_ BitVec 32))
(declare-const symbol_24 (_ BitVec 32))
(declare-const symbol_385 (_ BitVec 32))
(declare-const symbol_373 (_ BitVec 32))
(declare-const symbol_467 (_ BitVec 32))
(declare-const symbol_264 (_ BitVec 32))
(declare-const symbol_185 (_ BitVec 32))
(declare-const symbol_74 (_ BitVec 32))
(declare-const symbol_441 (_ BitVec 32))
(declare-const symbol_439 (_ BitVec 32))
(declare-const symbol_418 (_ BitVec 32))
(declare-const symbol_481 (_ BitVec 32))
(declare-const symbol_399 (_ BitVec 32))
(declare-const symbol_234 (_ BitVec 32))
(declare-const symbol_403 (_ BitVec 32))
(declare-const symbol_228 (_ BitVec 32))
(declare-const symbol_80 (_ BitVec 32))
(declare-const symbol_336 (_ BitVec 32))
(declare-const symbol_50 (_ BitVec 32))
(declare-const symbol_449 (_ BitVec 32))
(declare-const symbol_244 (_ BitVec 32))
(declare-const symbol_344 (_ BitVec 32))
(declare-const symbol_200 (_ BitVec 32))
(declare-const symbol_66 (_ BitVec 32))
(declare-const symbol_40 (_ BitVec 32))
(declare-const symbol_367 (_ BitVec 32))
(declare-const symbol_300 (_ BitVec 32))
(declare-const symbol_318 (_ BitVec 32))
(declare-const symbol_136 (_ BitVec 32))
(declare-const symbol_21 (_ BitVec 32))
(declare-const symbol_19 (_ BitVec 32))
(declare-const symbol_43 (_ BitVec 32))
(declare-const symbol_455 (_ BitVec 32))
(declare-const symbol_316 (_ BitVec 32))
(declare-const symbol_218 (_ BitVec 32))
(declare-const symbol_93 (_ BitVec 32))
(declare-const symbol_2 (_ BitVec 32))
(declare-const symbol_416 (_ BitVec 32))
(declare-const symbol_101 (_ BitVec 32))
(declare-const symbol_350 (_ BitVec 32))
(declare-const symbol_277 (_ BitVec 32))
(declare-const symbol_154 (_ BitVec 32))
(declare-const symbol_86 (_ BitVec 32))
(declare-const symbol_342 (_ BitVec 32))
(declare-const symbol_415 (_ BitVec 32))
(declare-const symbol_340 (_ BitVec 32))
(declare-const symbol_320 (_ BitVec 32))
(declare-const symbol_212 (_ BitVec 32))
(declare-const symbol_208 (_ BitVec 32))
(declare-const symbol_194 (_ BitVec 32))
(declare-const symbol_477 (_ BitVec 32))
(declare-const symbol_242 (_ BitVec 32))
(declare-const symbol_459 (_ BitVec 32))
(declare-const symbol_426 (_ BitVec 32))
(declare-const symbol_210 (_ BitVec 32))
(declare-const symbol_369 (_ BitVec 32))
(declare-const symbol_290 (_ BitVec 32))
(declare-const symbol_238 (_ BitVec 32))
(declare-const symbol_395 (_ BitVec 32))
(declare-const symbol_273 (_ BitVec 32))
(declare-const symbol_76 (_ BitVec 32))
(declare-const symbol_70 (_ BitVec 32))
(declare-const symbol_5 (_ BitVec 32))
(declare-const symbol_187 (_ BitVec 32))
(declare-const symbol_379 (_ BitVec 32))
(declare-const symbol_90 (_ BitVec 32))
(declare-const symbol_32 (_ BitVec 32))
(declare-const symbol_462 (_ BitVec 32))
(declare-const symbol_321 (_ BitVec 32))
(declare-const symbol_232 (_ BitVec 32))
(declare-const symbol_68 (_ BitVec 32))
(declare-const symbol_162 (_ BitVec 32))
(declare-const symbol_150 (_ BitVec 32))
(declare-const symbol_361 (_ BitVec 32))
(declare-const symbol_346 (_ BitVec 32))
(declare-const symbol_304 (_ BitVec 32))
(declare-const symbol_260 (_ BitVec 32))
(declare-const symbol_160 (_ BitVec 32))
(declare-const symbol_330 (_ BitVec 32))
(declare-const symbol_294 (_ BitVec 32))
(declare-const symbol_144 (_ BitVec 32))
(declare-const symbol_134 (_ BitVec 32))
(declare-const symbol_112 (_ BitVec 32))
(declare-const symbol_27 (_ BitVec 32))
(declare-const symbol_383 (_ BitVec 32))
(declare-const symbol_118 (_ BitVec 32))
(declare-const symbol_461 (_ BitVec 32))
(declare-const symbol_431 (_ BitVec 32))
(declare-const symbol_33 (_ BitVec 32))
(declare-const symbol_457 (_ BitVec 32))
(declare-const symbol_356 (_ BitVec 32))
(declare-const symbol_45 (_ BitVec 32))
(declare-const symbol_354 (_ BitVec 32))
(declare-const symbol_314 (_ BitVec 32))
(declare-const symbol_164 (_ BitVec 32))
(declare-const symbol_132 (_ BitVec 32))
(declare-const symbol_334 (_ BitVec 32))
(declare-const symbol_49 (_ BitVec 32))
(declare-const symbol_302 (_ BitVec 32))
(declare-const symbol_253 (_ BitVec 32))
(declare-const symbol_63 (_ BitVec 32))
(declare-const symbol_409 (_ BitVec 32))
(declare-const symbol_435 (_ BitVec 32))
(declare-const symbol_204 (_ BitVec 32))
(declare-const symbol_168 (_ BitVec 32))
(declare-const symbol_116 (_ BitVec 32))
(declare-const symbol_436 (_ BitVec 32))
(declare-const symbol_172 (_ BitVec 32))
(declare-const symbol_424 (_ BitVec 32))
(declare-const symbol_310 (_ BitVec 32))
(declare-const symbol_411 (_ BitVec 32))
(declare-const symbol_387 (_ BitVec 32))
(declare-const symbol_451 (_ BitVec 32))
(declare-const symbol_0 (_ BitVec 32))
(declare-const symbol_487 (_ BitVec 32))
(declare-const symbol_82 (_ BitVec 32))
(declare-const symbol_9 (_ BitVec 32))
(declare-const symbol_306 (_ BitVec 32))
(declare-const symbol_230 (_ BitVec 32))
(declare-const symbol_192 (_ BitVec 32))
(declare-const symbol_179 (_ BitVec 32))
(declare-const symbol_65 (_ BitVec 32))
(declare-const symbol_473 (_ BitVec 32))
(declare-const symbol_371 (_ BitVec 32))
(declare-const symbol_183 (_ BitVec 32))
(declare-const symbol_108 (_ BitVec 32))
(declare-const symbol_248 (_ BitVec 32))
(declare-const symbol_270 (_ BitVec 32))
(declare-const symbol_61 (_ BitVec 32))
(declare-const symbol_3 (_ BitVec 32))
(declare-const symbol_123 (_ BitVec 32))
(declare-const symbol_126 (_ BitVec 32))
(declare-const symbol_479 (_ BitVec 32))
(declare-const symbol_325 (_ BitVec 32))
(declare-const symbol_280 (_ BitVec 32))
(declare-const symbol_262 (_ BitVec 32))
(declare-const symbol_236 (_ BitVec 32))
(declare-const symbol_196 (_ BitVec 32))
(declare-const symbol_453 (_ BitVec 32))
(declare-const symbol_282 (_ BitVec 32))
(declare-const symbol_202 (_ BitVec 32))
(declare-const symbol_72 (_ BitVec 32))
(declare-const symbol_97 (_ BitVec 32))
(declare-const symbol_177 (_ BitVec 32))
(declare-const symbol_258 (_ BitVec 32))
(declare-const symbol_359 (_ BitVec 32))
(declare-const symbol_308 (_ BitVec 32))
(declare-const symbol_266 (_ BitVec 32))
(declare-const symbol_170 (_ BitVec 32))
(declare-const symbol_363 (_ BitVec 32))
(declare-const symbol_469 (_ BitVec 32))
(declare-const symbol_445 (_ BitVec 32))
(declare-const symbol_275 (_ BitVec 32))
(declare-const symbol_246 (_ BitVec 32))
(declare-const symbol_37 (_ BitVec 32))
(declare-const symbol_120 (_ BitVec 32))
(declare-const symbol_88 (_ BitVec 32))
(declare-const symbol_397 (_ BitVec 32))
(declare-const symbol_190 (_ BitVec 32))
(declare-const symbol_174 (_ BitVec 32))
(declare-const symbol_99 (_ BitVec 32))
(declare-const symbol_142 (_ BitVec 32))
(declare-const symbol_292 (_ BitVec 32))
(declare-const symbol_286 (_ BitVec 32))
(declare-const symbol_256 (_ BitVec 32))
(declare-const symbol_124 (_ BitVec 32))
(declare-const symbol_389 (_ BitVec 32))
(declare-const symbol_206 (_ BitVec 32))
(declare-const symbol_13 (_ BitVec 32))
(declare-const symbol_59 (_ BitVec 32))
(declare-const symbol_56 (_ BitVec 32))
(declare-const symbol_391 (_ BitVec 32))
(declare-const symbol_268 (_ BitVec 32))
(declare-const symbol_146 (_ BitVec 32))
(declare-const symbol_442 (_ BitVec 32))
(declare-const symbol_148 (_ BitVec 32))
(declare-const symbol_138 (_ BitVec 32))
(declare-const symbol_8 (_ BitVec 32))
(declare-const symbol_332 (_ BitVec 32))
(declare-const symbol_114 (_ BitVec 32))
(declare-const symbol_214 (_ BitVec 32))
(assert (not (= symbol_487 (_ bv1 32))))
(assert (not (not (= symbol_485 (_ bv1 32)))))
(assert (not (not (= symbol_483 (_ bv1 32)))))
(assert (not (not (= symbol_481 (_ bv1 32)))))
(assert (not (not (= symbol_479 (_ bv1 32)))))
(assert (not (not (= symbol_477 (_ bv1 32)))))
(assert (not (not (= symbol_475 (_ bv1 32)))))
(assert (not (not (= symbol_473 (_ bv1 32)))))
(assert (not (not (= symbol_471 (_ bv1 32)))))
(assert (not (not (= symbol_469 (_ bv1 32)))))
(assert (not (not (= symbol_467 (_ bv1 32)))))
(assert (not (not (= symbol_465 (_ bv1 32)))))
(assert (not (not (= symbol_462 (_ bv1 32)))))
(assert (not (not (= symbol_461 (_ bv1 32)))))
(assert (not (not (= symbol_459 (_ bv1 32)))))
(assert (not (not (= symbol_457 (_ bv1 32)))))
(assert (not (not (= symbol_455 (_ bv1 32)))))
(assert (not (not (= symbol_453 (_ bv1 32)))))
(assert (not (not (= symbol_451 (_ bv1 32)))))
(assert (not (not (= symbol_449 (_ bv1 32)))))
(assert (not (not (= symbol_447 (_ bv1 32)))))
(assert (not (not (= symbol_445 (_ bv1 32)))))
(assert (not (not (= symbol_442 (_ bv1 32)))))
(assert (not (not (= symbol_441 (_ bv1 32)))))
(assert (not (not (= symbol_439 (_ bv1 32)))))
(assert (not (not (= symbol_436 (_ bv1 32)))))
(assert (not (not (= symbol_435 (_ bv1 32)))))
(assert (not (not (= symbol_433 (_ bv1 32)))))
(assert (not (not (= symbol_431 (_ bv1 32)))))
(assert (not (not (= symbol_428 (_ bv1 32)))))
(assert (not (not (= symbol_426 (_ bv1 32)))))
(assert (not (not (= symbol_424 (_ bv1 32)))))
(assert (not (not (= symbol_422 (_ bv1 32)))))
(assert (not (not (= symbol_420 (_ bv1 32)))))
(assert (not (not (= symbol_418 (_ bv1 32)))))
(assert (not (not (= symbol_416 (_ bv1 32)))))
(assert (not (not (= symbol_415 (_ bv1 32)))))
(assert (not (not (= symbol_413 (_ bv1 32)))))
(assert (not (not (= symbol_411 (_ bv1 32)))))
(assert (not (not (= symbol_409 (_ bv1 32)))))
(assert (not (not (= symbol_407 (_ bv1 32)))))
(assert (not (not (= symbol_405 (_ bv1 32)))))
(assert (not (not (= symbol_403 (_ bv1 32)))))
(assert (not (not (= symbol_401 (_ bv1 32)))))
(assert (not (not (= symbol_399 (_ bv1 32)))))
(assert (not (not (= symbol_397 (_ bv1 32)))))
(assert (not (not (= symbol_395 (_ bv1 32)))))
(assert (not (not (= symbol_393 (_ bv1 32)))))
(assert (not (not (= symbol_391 (_ bv1 32)))))
(assert (not (not (= symbol_389 (_ bv1 32)))))
(assert (not (not (= symbol_387 (_ bv1 32)))))
(assert (not (not (= symbol_385 (_ bv1 32)))))
(assert (not (not (= symbol_383 (_ bv1 32)))))
(assert (not (not (= symbol_381 (_ bv1 32)))))
(assert (not (not (= symbol_379 (_ bv1 32)))))
(assert (not (not (= symbol_377 (_ bv1 32)))))
(assert (not (not (= symbol_375 (_ bv1 32)))))
(assert (not (not (= symbol_373 (_ bv1 32)))))
(assert (not (not (= symbol_371 (_ bv1 32)))))
(assert (not (not (= symbol_369 (_ bv1 32)))))
(assert (not (not (= symbol_367 (_ bv1 32)))))
(assert (not (not (= symbol_365 (_ bv1 32)))))
(assert (not (not (= symbol_363 (_ bv1 32)))))
(assert (not (not (= symbol_361 (_ bv1 32)))))
(assert (not (not (= symbol_359 (_ bv1 32)))))
(assert (not (not (= symbol_356 (_ bv1 32)))))
(assert (not (not (= symbol_354 (_ bv1 32)))))
(assert (not (not (= symbol_352 (_ bv1 32)))))
(assert (not (not (= symbol_350 (_ bv1 32)))))
(assert (not (not (= symbol_348 (_ bv1 32)))))
(assert (not (not (= symbol_346 (_ bv1 32)))))
(assert (not (not (= symbol_344 (_ bv1 32)))))
(assert (not (not (= symbol_342 (_ bv1 32)))))
(assert (not (not (= symbol_340 (_ bv1 32)))))
(assert (not (not (= symbol_338 (_ bv1 32)))))
(assert (not (not (= symbol_336 (_ bv1 32)))))
(assert (not (not (= symbol_334 (_ bv1 32)))))
(assert (not (not (= symbol_332 (_ bv1 32)))))
(assert (not (not (= symbol_330 (_ bv1 32)))))
(assert (not (not (= symbol_327 (_ bv1 32)))))
(assert (not (not (= symbol_325 (_ bv1 32)))))
(assert (not (not (= symbol_323 (_ bv1 32)))))
(assert (not (not (= symbol_321 (_ bv1 32)))))
(assert (not (not (= symbol_320 (_ bv1 32)))))
(assert (not (not (= symbol_318 (_ bv1 32)))))
(assert (not (not (= symbol_316 (_ bv1 32)))))
(assert (not (not (= symbol_314 (_ bv1 32)))))
(assert (not (not (= symbol_312 (_ bv1 32)))))
(assert (not (not (= symbol_310 (_ bv1 32)))))
(assert (not (not (= symbol_308 (_ bv1 32)))))
(assert (not (not (= symbol_306 (_ bv1 32)))))
(assert (not (not (= symbol_304 (_ bv1 32)))))
(assert (not (not (= symbol_302 (_ bv1 32)))))
(assert (not (not (= symbol_300 (_ bv1 32)))))
(assert (not (not (= symbol_298 (_ bv1 32)))))
(assert (not (not (= symbol_296 (_ bv1 32)))))
(assert (not (not (= symbol_294 (_ bv1 32)))))
(assert (not (not (= symbol_292 (_ bv1 32)))))
(assert (not (not (= symbol_290 (_ bv1 32)))))
(assert (not (not (= symbol_288 (_ bv1 32)))))
(assert (not (not (= symbol_286 (_ bv1 32)))))
(assert (not (not (= symbol_284 (_ bv1 32)))))
(assert (not (not (= symbol_282 (_ bv1 32)))))
(assert (not (not (= symbol_280 (_ bv1 32)))))
(assert (not (not (= symbol_277 (_ bv1 32)))))
(assert (not (not (= symbol_275 (_ bv1 32)))))
(assert (not (not (= symbol_273 (_ bv1 32)))))
(assert (not (not (= symbol_272 (_ bv1 32)))))
(assert (not (not (= symbol_270 (_ bv1 32)))))
(assert (not (not (= symbol_268 (_ bv1 32)))))
(assert (not (not (= symbol_266 (_ bv1 32)))))
(assert (not (not (= symbol_264 (_ bv1 32)))))
(assert (not (not (= symbol_262 (_ bv1 32)))))
(assert (not (not (= symbol_260 (_ bv1 32)))))
(assert (not (not (= symbol_258 (_ bv1 32)))))
(assert (not (not (= symbol_256 (_ bv1 32)))))
(assert (not (not (= symbol_254 (_ bv1 32)))))
(assert (not (not (= symbol_253 (_ bv1 32)))))
(assert (not (not (= symbol_250 (_ bv1 32)))))
(assert (not (not (= symbol_248 (_ bv1 32)))))
(assert (not (not (= symbol_246 (_ bv1 32)))))
(assert (not (not (= symbol_244 (_ bv1 32)))))
(assert (not (not (= symbol_242 (_ bv1 32)))))
(assert (not (not (= symbol_240 (_ bv1 32)))))
(assert (not (not (= symbol_238 (_ bv1 32)))))
(assert (not (not (= symbol_236 (_ bv1 32)))))
(assert (not (not (= symbol_234 (_ bv1 32)))))
(assert (not (not (= symbol_232 (_ bv1 32)))))
(assert (not (not (= symbol_230 (_ bv1 32)))))
(assert (not (not (= symbol_228 (_ bv1 32)))))
(assert (not (not (= symbol_226 (_ bv1 32)))))
(assert (not (not (= symbol_224 (_ bv1 32)))))
(assert (not (not (= symbol_222 (_ bv1 32)))))
(assert (not (not (= symbol_221 (_ bv1 32)))))
(assert (not (not (= symbol_218 (_ bv1 32)))))
(assert (not (not (= symbol_216 (_ bv1 32)))))
(assert (not (not (= symbol_214 (_ bv1 32)))))
(assert (not (not (= symbol_212 (_ bv1 32)))))
(assert (not (not (= symbol_210 (_ bv1 32)))))
(assert (not (not (= symbol_208 (_ bv1 32)))))
(assert (not (not (= symbol_206 (_ bv1 32)))))
(assert (not (not (= symbol_204 (_ bv1 32)))))
(assert (not (not (= symbol_202 (_ bv1 32)))))
(assert (not (not (= symbol_200 (_ bv1 32)))))
(assert (not (not (= symbol_198 (_ bv1 32)))))
(assert (not (not (= symbol_196 (_ bv1 32)))))
(assert (not (not (= symbol_194 (_ bv1 32)))))
(assert (not (not (= symbol_192 (_ bv1 32)))))
(assert (not (not (= symbol_190 (_ bv1 32)))))
(assert (not (not (= symbol_187 (_ bv1 32)))))
(assert (not (not (= symbol_185 (_ bv1 32)))))
(assert (not (not (= symbol_183 (_ bv1 32)))))
(assert (not (not (= symbol_181 (_ bv1 32)))))
(assert (not (not (= symbol_179 (_ bv1 32)))))
(assert (not (not (= symbol_177 (_ bv1 32)))))
(assert (not (not (= symbol_174 (_ bv1 32)))))
(assert (not (not (= symbol_172 (_ bv1 32)))))
(assert (not (not (= symbol_170 (_ bv1 32)))))
(assert (not (not (= symbol_168 (_ bv1 32)))))
(assert (not (not (= symbol_166 (_ bv1 32)))))
(assert (not (not (= symbol_164 (_ bv1 32)))))
(assert (not (not (= symbol_162 (_ bv1 32)))))
(assert (not (not (= symbol_160 (_ bv1 32)))))
(assert (not (not (= symbol_158 (_ bv1 32)))))
(assert (not (not (= symbol_156 (_ bv1 32)))))
(assert (not (not (= symbol_154 (_ bv1 32)))))
(assert (not (not (= symbol_152 (_ bv1 32)))))
(assert (not (not (= symbol_150 (_ bv1 32)))))
(assert (not (not (= symbol_148 (_ bv1 32)))))
(assert (not (not (= symbol_146 (_ bv1 32)))))
(assert (not (not (= symbol_144 (_ bv1 32)))))
(assert (not (not (= symbol_142 (_ bv1 32)))))
(assert (not (not (= symbol_140 (_ bv1 32)))))
(assert (not (not (= symbol_138 (_ bv1 32)))))
(assert (not (not (= symbol_136 (_ bv1 32)))))
(assert (not (not (= symbol_134 (_ bv1 32)))))
(assert (not (not (= symbol_132 (_ bv1 32)))))
(assert (not (not (= symbol_130 (_ bv1 32)))))
(assert (not (not (= symbol_128 (_ bv1 32)))))
(assert (not (not (= symbol_126 (_ bv1 32)))))
(assert (not (not (= symbol_124 (_ bv1 32)))))
(assert (not (not (= symbol_123 (_ bv1 32)))))
(assert (not (not (= symbol_120 (_ bv1 32)))))
(assert (not (not (= symbol_118 (_ bv1 32)))))
(assert (not (not (= symbol_116 (_ bv1 32)))))
(assert (not (not (= symbol_114 (_ bv1 32)))))
(assert (not (not (= symbol_112 (_ bv1 32)))))
(assert (not (not (= symbol_110 (_ bv1 32)))))
(assert (not (not (= symbol_108 (_ bv1 32)))))
(assert (not (not (= symbol_106 (_ bv1 32)))))
(assert (not (not (= symbol_104 (_ bv1 32)))))
(assert (not (not (= symbol_101 (_ bv1 32)))))
(assert (not (not (= symbol_99 (_ bv1 32)))))
(assert (not (not (= symbol_97 (_ bv1 32)))))
(assert (not (not (= symbol_95 (_ bv1 32)))))
(assert (not (not (= symbol_93 (_ bv1 32)))))
(assert (not (not (= symbol_90 (_ bv1 32)))))
(assert (not (not (= symbol_88 (_ bv1 32)))))
(assert (not (not (= symbol_86 (_ bv1 32)))))
(assert (not (not (= symbol_84 (_ bv1 32)))))
(assert (not (not (= symbol_82 (_ bv1 32)))))
(assert (not (not (= symbol_80 (_ bv1 32)))))
(assert (not (not (= symbol_78 (_ bv1 32)))))
(assert (not (not (= symbol_76 (_ bv1 32)))))
(assert (not (not (= symbol_74 (_ bv1 32)))))
(assert (not (not (= symbol_72 (_ bv1 32)))))
(assert (not (not (= symbol_70 (_ bv1 32)))))
(assert (not (not (= symbol_68 (_ bv1 32)))))
(assert (not (not (= symbol_66 (_ bv1 32)))))
(assert (not (not (= symbol_65 (_ bv1 32)))))
(assert (not (not (= symbol_63 (_ bv1 32)))))
(assert (not (not (= symbol_61 (_ bv1 32)))))
(assert (not (not (= symbol_59 (_ bv1 32)))))
(assert (not (not (= symbol_58 (_ bv1 32)))))
(assert (not (not (= symbol_56 (_ bv1 32)))))
(assert (not (not (= symbol_54 (_ bv1 32)))))
(assert (not (not (= symbol_52 (_ bv1 32)))))
(assert (not (not (= symbol_50 (_ bv1 32)))))
(assert (not (not (= symbol_49 (_ bv1 32)))))
(assert (not (not (= symbol_47 (_ bv1 32)))))
(assert (not (not (= symbol_45 (_ bv1 32)))))
(assert (not (not (= symbol_43 (_ bv1 32)))))
(assert (not (not (= symbol_40 (_ bv1 32)))))
(assert (not (not (= symbol_37 (_ bv1 32)))))
(assert (not (not (= symbol_35 (_ bv1 32)))))
(assert (not (not (= symbol_33 (_ bv1 32)))))
(assert (not (not (= symbol_32 (_ bv1 32)))))
(assert (not (not (= symbol_29 (_ bv1 32)))))
(assert (not (not (= symbol_27 (_ bv1 32)))))
(assert (not (not (= symbol_26 (_ bv1 32)))))
(assert (not (not (= symbol_24 (_ bv1 32)))))
(assert (not (not (= symbol_21 (_ bv1 32)))))
(assert (not (not (= symbol_19 (_ bv1 32)))))
(assert (not (not (= symbol_17 (_ bv1 32)))))
(assert (not (not (= symbol_15 (_ bv1 32)))))
(assert (not (not (= symbol_13 (_ bv1 32)))))
(assert (not (not (= symbol_11 (_ bv1 32)))))
(assert (not (not (= symbol_9 (_ bv1 32)))))
(assert (not (not (= symbol_8 (_ bv1 32)))))
(assert (not (not (= symbol_5 (_ bv1 32)))))
(assert (not (not (= symbol_3 (_ bv1 32)))))
(assert (not (not (= symbol_2 (_ bv1 32)))))
(assert (not (not (= symbol_0 (_ bv1 32)))))
(check-sat)